7825
49, 32, 1, 22, 23, 20, 50, 44, 46, 16, 29, 30, 2, 7, 42, 21, 31, 18, 17, 3, 45, 19, 41, 8, 9, 10, 43, 33, 51, 11, 52, 14, 13, 47, 26, 27, 28, 12, 25, 4, 6, 15, 5, 24, 48, 38, 37, 40, 39, 34, 35, 36
